<?xml version = "1.0" encoding="UTF-8" standalone="yes"?>
<CPLEXSolution version="1.2">
 <header
   problemName="inst_11_cut_n9"
   objectiveValue="11.637903652726401"
   solutionTypeValue="1"
   solutionTypeString="basic"
   solutionStatusValue="1"
   solutionStatusString="optimal"
   solutionMethodString="primal"
   primalFeasible="1"
   dualFeasible="1"
   simplexIterations="0"
   writeLevel="1"/>
 <quality
   epRHS="9.9999999999999995e-07"
   epOpt="9.9999999999999995e-07"
   maxPrimalInfeas="0"
   maxDualInfeas="0"
   maxPrimalResidual="3.1263880373444408e-13"
   maxDualResidual="8.8817841970012523e-15"
   maxX="1.8755955532023076"
   maxPi="75.53573319216504"
   maxSlack="272.39280042350441"
   maxRedCost="87.857067231339343"
   kappa="650.39395054437387"/>
 <linearConstraints>
  <constraint name="c0" index="0" status="BS" slack="272.39280042350441" dual="-0"/>
  <constraint name="c1" index="1" status="BS" slack="31.736368448914462" dual="-0"/>
  <constraint name="c2" index="2" status="BS" slack="195.55055584965544" dual="-0"/>
  <constraint name="c3" index="3" status="BS" slack="237.41662255161415" dual="-0"/>
  <constraint name="c4" index="4" status="BS" slack="6.7083112758068282" dual="-0"/>
  <constraint name="c5" index="5" status="BS" slack="46.638433033350537" dual="-0"/>
  <constraint name="c6" index="6" status="LL" slack="0" dual="0.046585494970883712"/>
  <constraint name="c7" index="7" status="BS" slack="41.32874536791941" dual="-0"/>
  <constraint name="c8" index="8" status="BS" slack="49.822128110111002" dual="-0"/>
  <constraint name="c9" index="9" status="LL" slack="0" dual="-0"/>
  <constraint name="c10" index="10" status="BS" slack="119.43091582848021" dual="-0"/>
  <constraint name="cut_1" index="11" status="BS" slack="0.80995235574372493" dual="-0"/>
  <constraint name="cut_2" index="12" status="BS" slack="0.95023822128070101" dual="-0"/>
  <constraint name="cut_3" index="13" status="BS" slack="0.92535733192136682" dual="-0"/>
  <constraint name="cut_4" index="14" status="BS" slack="0.570142932768539" dual="-0"/>
  <constraint name="cut_5" index="15" status="BS" slack="1.3800952885121589" dual="-0"/>
  <constraint name="cut_6" index="16" status="BS" slack="1.5950238221278878" dual="-0"/>
  <constraint name="cut_7" index="17" status="LL" slack="0" dual="0.62678665960824465"/>
  <constraint name="cut_8" index="18" status="LL" slack="0" dual="75.53573319216504"/>
  <constraint name="cut_9" index="19" status="BS" slack="0.95023822128094659" dual="-0"/>
 </linearConstraints>
 <variables>
  <variable name="x0" index="0" status="LL" value="0" reducedCost="-87.857067231339343"/>
  <variable name="x1" index="1" status="BS" value="0.57014293276866557" reducedCost="0"/>
  <variable name="x2" index="2" status="BS" value="0.31445209105346905" reducedCost="0"/>
  <variable name="x3" index="3" status="BS" value="0" reducedCost="0"/>
  <variable name="s0" index="4" status="LL" value="0" reducedCost="0"/>
  <variable name="s1" index="5" status="LL" value="0" reducedCost="0"/>
  <variable name="s2" index="6" status="LL" value="0" reducedCost="0"/>
  <variable name="s3" index="7" status="LL" value="0" reducedCost="0"/>
  <variable name="s4" index="8" status="LL" value="0" reducedCost="0"/>
  <variable name="s5" index="9" status="LL" value="0" reducedCost="0"/>
  <variable name="s6" index="10" status="LL" value="0" reducedCost="-0.046585494970883712"/>
  <variable name="s7" index="11" status="LL" value="0" reducedCost="0"/>
  <variable name="s8" index="12" status="LL" value="0" reducedCost="0"/>
  <variable name="s9" index="13" status="BS" value="1.8755955532023076" reducedCost="0"/>
  <variable name="s10" index="14" status="LL" value="0" reducedCost="0"/>
 </variables>
 <objectiveValues>
  <objective index="0" name="" value="11.637903652726401"/>
 </objectiveValues>
</CPLEXSolution>
